nNurses = 76;
nHours = 29;
minHours = 5;
maxHours = 8;
maxConsec = 7;
maxPresence = 22;
demand = [21, 21, 21, 19, 14, 10, 9, 5, 5, 8, 6, 9, 14, 9, 11, 13, 12, 16, 12, 8, 9, 5, 10, 9, 9, 12, 14, 10, 14];
